27 6
29 30 34 30 28 29
1 0 0 0 0 0 0 3 2 3 4
1 6 1 4 8 3 3 2 7 8
5 2 6 8 10 10 8 3 5 6 7
3 1 4 6 1 3 10 3 5 7 8
4 10 3 4 7 5 10 2 10 11
9 5 10 7 4 6 2 1 10
7 9 3 6 9 5 3 3 9 10 11
1 6 8 8 7 8 6 3 10 11 12
1 3 4 4 6 3 3 3 13 14 16
10 3 1 9 5 1 7 3 13 14 15
9 4 4 8 8 5 1 2 14 15
9 9 8 7 9 6 5 4 13 14 15 16
4 7 6 4 6 8 10 3 17 18 19
8 6 8 1 2 7 3 1 20
2 10 9 8 1 7 9 1 17
1 4 10 7 4 7 7 2 17 19
2 10 9 10 10 6 5 2 21 23
8 9 2 4 8 8 4 3 22 23 24
8 3 9 10 6 1 9 2 23 24
10 3 4 1 3 5 4 2 21 22
10 3 10 9 6 5 7 1 25
5 8 8 8 4 8 10 1 25
10 4 5 10 9 6 3 2 25 26
7 1 6 7 2 7 7 2 25 26
2 4 2 10 4 8 2 1 27
2 10 6 9 8 1 6 1 27
0 0 0 0 0 0 0 0
